c Sudoku solution
p cnf 729 0
139 0
157 0
186 0
224 0
255 0
262 0
354 0
366 0
389 0
249 0
392 0
426 0
445 0
488 0
497 0
533 0
569 0
594 0
174 0
628 0
644 0
695 0
375 0
735 0
796 0
816 0
236 0
827 0
967 0
865 0
764 0
985 0
884 0
547 0
558 0
656 0
452 0
576 0
946 0
168 0
973 0
463 0
661 0
683 0
321 0
343 0
141 0
193 0
213 0
723 0
929 0
951 0
759 0
853 0
831 0
998 0
899 0
872 0
848 0
742 0
718 0
317 0
338 0
637 0
434 0
914 0
932 0
679 0
582 0
471 0
419 0
511 0
525 0
612 0
115 0
122 0
777 0
781 0
278 0
287 0
291 0
